* ENCODING=ISO-8859-1
NAME          CPLEX
ROWS
 N  obj1    
 G  c1      
 G  c2      
 G  c3      
 G  c4      
 G  c5      
 G  c6      
 G  c7      
 G  c8      
 G  c9      
 G  c10     
 G  c11     
 G  c12     
 G  c13     
 G  c14     
 G  c15     
 G  c16     
 G  c17     
 G  c18     
 G  c19     
 G  c20     
 G  c21     
 G  c22     
 G  c23     
 G  c24     
 G  c25     
COLUMNS
    MARK0000  'MARKER'                 'INTORG'
    x1        obj1                            1
    x1        c14                           480
    x1        c15                           711
    x2        obj1                            1
    x2        c24                           821
    x3        obj1                            1
    x3        c9                            645
    x3        c13                           254
    x3        c17                           431
    x4        obj1                            1
    x4        c7                            122
    x4        c11                           267
    x4        c16                           811
    x5        obj1                            1
    x5        c7                            819
    x5        c10                           429
    x5        c20                           543
    x6        obj1                            1
    x6        c1                            582
    x7        obj1                            1
    x7        c8                            102
    x7        c10                           140
    x7        c16                           565
    x8        obj1                            1
    x8        c2                            955
    x8        c10                           261
    x9        obj1                            1
    x9        c10                           283
    x9        c12                           540
    x9        c19                           854
    x9        c25                           968
    x10       obj1                            1
    x11       obj1                            1
    x11       c11                           100
    x11       c16                           845
    x11       c24                           826
    x12       obj1                            1
    x12       c2                            301
    x13       obj1                            1
    x13       c4                            279
    x13       c12                           649
    x13       c19                           308
    x14       obj1                            1
    x14       c4                            566
    x15       obj1                            1
    x15       c14                           583
    x15       c17                           522
    x16       obj1                            1
    x16       c7                            432
    x17       obj1                            1
    x17       c1                            963
    x17       c4                            950
    x17       c10                           969
    x18       obj1                            1
    x18       c5                            501
    x18       c14                           177
    x18       c15                           448
    x18       c21                           219
    x19       obj1                            1
    x19       c13                           646
    x19       c15                           149
    x19       c17                           928
    x20       obj1                            1
    x20       c17                           198
    x20       c23                           706
    x21       obj1                            1
    x21       c2                            470
    x21       c22                           351
    x21       c24                           708
    x21       c25                           810
    x22       obj1                            1
    x22       c13                           250
    x22       c19                           262
    x22       c21                           217
    x22       c25                          1000
    x23       obj1                            1
    x23       c20                           577
    x24       obj1                            1
    x24       c4                            861
    x24       c7                            193
    x25       obj1                            1
    x25       c1                            853
    x25       c3                            235
    x26       obj1                            1
    x26       c5                            988
    x26       c9                            824
    x26       c22                           977
    x26       c24                           427
    x26       c25                           838
    x27       obj1                            1
    x27       c1                            607
    x27       c24                           335
    x28       obj1                            1
    x28       c8                            799
    x29       obj1                            1
    x29       c3                            792
    x29       c9                            441
    x29       c18                           837
    x30       obj1                            1
    x31       obj1                            1
    x31       c8                            477
    x31       c12                           662
    x31       c20                           984
    x32       obj1                            1
    x32       c3                            101
    x32       c14                           507
    x32       c15                           190
    x32       c20                           617
    x32       c23                           779
    x33       obj1                            1
    x33       c9                            709
    x34       obj1                            1
    x34       c19                           743
    x34       c22                           652
    x35       obj1                            1
    x35       c22                           682
    x35       c23                           799
    x36       obj1                            1
    x36       c13                           543
    x36       c20                           895
    x37       obj1                            1
    x37       c19                           851
    x38       obj1                            1
    x38       c3                            572
    x38       c12                           129
    x39       obj1                            1
    x39       c14                           582
    x39       c21                           974
    x40       obj1                            1
    x40       c6                            518
    x40       c11                           617
    x40       c24                           948
    x41       obj1                            1
    x41       c1                            468
    x41       c3                            862
    x41       c13                           605
    x41       c18                           550
    x42       obj1                            1
    x42       c4                            256
    x42       c5                            452
    x42       c7                            101
    x42       c10                           384
    x42       c12                           716
    x42       c18                           369
    x43       obj1                            1
    x43       c6                            158
    x43       c9                            882
    x43       c10                           496
    x43       c23                           568
    x43       c25                           170
    x44       obj1                            1
    x44       c17                           958
    x45       obj1                            1
    x45       c6                            686
    x45       c14                           912
    x45       c20                           485
    x46       obj1                            1
    x46       c15                           809
    x46       c25                           285
    x47       obj1                            1
    x47       c4                            336
    x47       c9                            967
    x48       obj1                            1
    x48       c16                           895
    x49       obj1                            1
    x49       c6                            602
    x49       c8                            988
    x50       obj1                            1
    x50       c3                            721
    x50       c4                            212
    x50       c25                           705
    MARK0001  'MARKER'                 'INTEND'
RHS
    rhs       c1                           1737
    rhs       c2                            863
    rhs       c3                           1642
    rhs       c4                           1730
    rhs       c5                            971
    rhs       c6                            982
    rhs       c7                            834
    rhs       c8                           1183
    rhs       c9                           2234
    rhs       c10                          1481
    rhs       c11                           492
    rhs       c12                          1348
    rhs       c13                          1149
    rhs       c14                          1621
    rhs       c15                          1154
    rhs       c16                          1558
    rhs       c17                          1519
    rhs       c18                           878
    rhs       c19                          1509
    rhs       c20                          2051
    rhs       c21                           705
    rhs       c22                          1331
    rhs       c23                          1426
    rhs       c24                          2033
    rhs       c25                          2388
BOUNDS
 LI bnd       x1        0
 LI bnd       x2        0
 LI bnd       x3        0
 LI bnd       x4        0
 LI bnd       x5        0
 LI bnd       x6        0
 LI bnd       x7        0
 LI bnd       x8        0
 LI bnd       x9        0
 LI bnd       x10       0
 LI bnd       x11       0
 LI bnd       x12       0
 LI bnd       x13       0
 LI bnd       x14       0
 LI bnd       x15       0
 LI bnd       x16       0
 LI bnd       x17       0
 LI bnd       x18       0
 LI bnd       x19       0
 LI bnd       x20       0
 LI bnd       x21       0
 LI bnd       x22       0
 LI bnd       x23       0
 LI bnd       x24       0
 LI bnd       x25       0
 LI bnd       x26       0
 LI bnd       x27       0
 LI bnd       x28       0
 LI bnd       x29       0
 LI bnd       x30       0
 LI bnd       x31       0
 LI bnd       x32       0
 LI bnd       x33       0
 LI bnd       x34       0
 LI bnd       x35       0
 LI bnd       x36       0
 LI bnd       x37       0
 LI bnd       x38       0
 LI bnd       x39       0
 LI bnd       x40       0
 LI bnd       x41       0
 LI bnd       x42       0
 LI bnd       x43       0
 LI bnd       x44       0
 LI bnd       x45       0
 LI bnd       x46       0
 LI bnd       x47       0
 LI bnd       x48       0
 LI bnd       x49       0
 LI bnd       x50       0
ENDATA
